Welcome to the CBC MILP Solver 
Version: 2.10.7 
Build Date: Feb 14 2022 

command line - cbc new_inputs_trans/order/dag3_tiers_input.lp sec 1800 solve solu transitive/dag3_tiers_input.lp (default strategy 1)
### CoinLpIO::readLp(): Variable y_84_84 does not appear in objective function or constraints
### CoinLpIO::readLp(): Variable y_84_92 does not appear in objective function or constraints
### CoinLpIO::readLp(): Variable y_84_85 does not appear in objective function or constraints
seconds was changed from 1e+100 to 1800
Continuous objective value is 0 - 5.08 seconds
Cgl0002I 5546 variables fixed
Cgl0003I 0 fixed, 0 tightened bounds, 3764 strengthened rows, 0 substitutions
Cgl0003I 0 fixed, 0 tightened bounds, 245 strengthened rows, 0 substitutions
Cgl0003I 0 fixed, 0 tightened bounds, 5 strengthened rows, 0 substitutions
Cgl0004I processed model has 20067 rows, 6534 columns (6534 integer (6438 of which binary)) and 61484 elements
Cbc0045I No integer variables out of 6534 objects (6534 integer) have costs
Cbc0045I branch on satisfied N create fake objective Y random cost Y
Cbc0038I Initial state - 4419 integers unsatisfied sum - 659.404
Cbc0038I Pass   1: (27.22 seconds) suminf.  416.05021 (3880) obj. 0 iterations 5680
Cbc0038I Pass   2: (30.05 seconds) suminf.  383.94447 (3889) obj. 0 iterations 2128
Cbc0038I Pass   3: (31.39 seconds) suminf.  372.57370 (3897) obj. 0 iterations 958
Cbc0038I Pass   4: (32.46 seconds) suminf.  378.19390 (3897) obj. 0 iterations 784
Cbc0038I Pass   5: (33.35 seconds) suminf.  379.52629 (3919) obj. 0 iterations 627
Cbc0038I Pass   6: (33.92 seconds) suminf.  378.42887 (3908) obj. 0 iterations 365
Cbc0038I Pass   7: (34.08 seconds) suminf.  378.68360 (3921) obj. 0 iterations 85
Cbc0038I Pass   8: (34.33 seconds) suminf.  376.58784 (3924) obj. 0 iterations 145
Cbc0038I Pass   9: (34.68 seconds) suminf.  377.61909 (3935) obj. 0 iterations 204
Cbc0038I Pass  10: (35.34 seconds) suminf.  378.11344 (3917) obj. 0 iterations 436
Cbc0038I Pass  11: (35.59 seconds) suminf.  379.41492 (3918) obj. 0 iterations 151
Cbc0038I Pass  12: (35.97 seconds) suminf.  379.81831 (3915) obj. 0 iterations 231
Cbc0038I Pass  13: (36.35 seconds) suminf.  379.14244 (3963) obj. 0 iterations 225
Cbc0038I Pass  14: (37.18 seconds) suminf.  376.06850 (3939) obj. 0 iterations 534
Cbc0038I Pass  15: (37.93 seconds) suminf.  375.95517 (3941) obj. 0 iterations 463
Cbc0038I Pass  16: (38.72 seconds) suminf.  374.74545 (3923) obj. 0 iterations 495
Cbc0038I Pass  17: (39.27 seconds) suminf.  375.78771 (3946) obj. 0 iterations 375
Cbc0038I Pass  18: (40.01 seconds) suminf.  376.17939 (3928) obj. 0 iterations 452
Cbc0038I Pass  19: (40.83 seconds) suminf.  376.62433 (3927) obj. 0 iterations 584
Cbc0038I Pass  20: (41.56 seconds) suminf.  375.18486 (3909) obj. 0 iterations 488
Cbc0038I Pass  21: (41.91 seconds) suminf.  375.72977 (3905) obj. 0 iterations 223
Cbc0038I Pass  22: (42.26 seconds) suminf.  375.77382 (3903) obj. 0 iterations 219
Cbc0038I Pass  23: (43.08 seconds) suminf.  376.92374 (3879) obj. 0 iterations 611
Cbc0038I Pass  24: (43.59 seconds) suminf.  374.86615 (3901) obj. 0 iterations 312
Cbc0038I Pass  25: (43.61 seconds) suminf.  374.87168 (3901) obj. 0 iterations 3
Cbc0038I Pass  26: (44.16 seconds) suminf.  376.43707 (3906) obj. 0 iterations 331
Cbc0038I Pass  27: (44.51 seconds) suminf.  374.04521 (3922) obj. 0 iterations 205
Cbc0038I Pass  28: (45.38 seconds) suminf.  371.49913 (3928) obj. 0 iterations 589
Cbc0038I Pass  29: (45.41 seconds) suminf.  371.41824 (3929) obj. 0 iterations 4
Cbc0038I Pass  30: (46.60 seconds) suminf.  373.18723 (3884) obj. 0 iterations 855
Cbc0038I Pass  31: (47.08 seconds) suminf.  372.57414 (3914) obj. 0 iterations 291
Cbc0038I Pass  32: (47.12 seconds) suminf.  372.56490 (3916) obj. 0 iterations 12
Cbc0038I Pass  33: (47.50 seconds) suminf.  373.34790 (3880) obj. 0 iterations 218
Cbc0038I Pass  34: (47.71 seconds) suminf.  373.15786 (3917) obj. 0 iterations 116
Cbc0038I Pass  35: (47.75 seconds) suminf.  373.05846 (3915) obj. 0 iterations 19
Cbc0038I Pass  36: (47.93 seconds) suminf.  373.60593 (3879) obj. 0 iterations 104
Cbc0038I Pass  37: (53.09 seconds) suminf.  351.25664 (3906) obj. 0 iterations 3752
Cbc0038I Pass  38: (56.17 seconds) suminf.  333.54438 (3924) obj. 0 iterations 2097
Cbc0038I Pass  39: (56.90 seconds) suminf.  332.74459 (3945) obj. 0 iterations 343
Cbc0038I Pass  40: (57.10 seconds) suminf.  332.31525 (3926) obj. 0 iterations 94
Cbc0038I Pass  41: (58.31 seconds) suminf.  331.46768 (3911) obj. 0 iterations 676
Cbc0038I Pass  42: (59.43 seconds) suminf.  325.14908 (3937) obj. 0 iterations 636
Cbc0038I Pass  43: (60.44 seconds) suminf.  323.65347 (3940) obj. 0 iterations 564
Cbc0038I Pass  44: (61.07 seconds) suminf.  323.10747 (3926) obj. 0 iterations 315
Cbc0038I Pass  45: (61.18 seconds) suminf.  323.15887 (3928) obj. 0 iterations 54
Cbc0038I Pass  46: (61.90 seconds) suminf.  321.41266 (3929) obj. 0 iterations 345
Cbc0038I Pass  47: (62.31 seconds) suminf.  321.67722 (3922) obj. 0 iterations 207
Cbc0038I Pass  48: (62.84 seconds) suminf.  321.00872 (3926) obj. 0 iterations 255
Cbc0038I Pass  49: (62.91 seconds) suminf.  320.99023 (3920) obj. 0 iterations 29
Cbc0038I Pass  50: (63.12 seconds) suminf.  319.93096 (3929) obj. 0 iterations 98
Cbc0038I Pass  51: (63.28 seconds) suminf.  321.53761 (3923) obj. 0 iterations 73
Cbc0038I Pass  52: (64.14 seconds) suminf.  316.59964 (3954) obj. 0 iterations 476
Cbc0038I Pass  53: (64.40 seconds) suminf.  316.72407 (3933) obj. 0 iterations 125
Cbc0038I Pass  54: (65.02 seconds) suminf.  314.37525 (3948) obj. 0 iterations 294
Cbc0038I Pass  55: (65.51 seconds) suminf.  314.03367 (3951) obj. 0 iterations 247
Cbc0038I Pass  56: (65.59 seconds) suminf.  313.78195 (3952) obj. 0 iterations 34
Cbc0038I Pass  57: (66.31 seconds) suminf.  312.78468 (3947) obj. 0 iterations 342
Cbc0038I Pass  58: (66.63 seconds) suminf.  314.08453 (3956) obj. 0 iterations 155
Cbc0038I Pass  59: (66.85 seconds) suminf.  312.64565 (3953) obj. 0 iterations 107
Cbc0038I Pass  60: (67.01 seconds) suminf.  314.44444 (3962) obj. 0 iterations 68
Cbc0038I Pass  61: (67.22 seconds) suminf.  313.34559 (3952) obj. 0 iterations 96
Cbc0038I Pass  62: (67.39 seconds) suminf.  314.04710 (3957) obj. 0 iterations 80
Cbc0038I Pass  63: (67.73 seconds) suminf.  312.75949 (3950) obj. 0 iterations 164
Cbc0038I Pass  64: (67.96 seconds) suminf.  314.20446 (3948) obj. 0 iterations 104
Cbc0038I Pass  65: (68.46 seconds) suminf.  313.48860 (3951) obj. 0 iterations 246
Cbc0038I Pass  66: (68.65 seconds) suminf.  314.57546 (3958) obj. 0 iterations 86
Cbc0038I Pass  67: (69.07 seconds) suminf.  313.49020 (3955) obj. 0 iterations 216
Cbc0038I Pass  68: (69.28 seconds) suminf.  315.03367 (3955) obj. 0 iterations 97
Cbc0038I Pass  69: (69.62 seconds) suminf.  313.03711 (3956) obj. 0 iterations 164
Cbc0038I Pass  70: (74.34 seconds) suminf.  325.26673 (3929) obj. 0 iterations 3201
Cbc0038I Pass  71: (77.27 seconds) suminf.  317.33840 (4021) obj. 0 iterations 1934
Cbc0038I Pass  72: (78.47 seconds) suminf.  307.74865 (4007) obj. 0 iterations 724
Cbc0038I Pass  73: (79.46 seconds) suminf.  305.55821 (4012) obj. 0 iterations 541
Cbc0038I Pass  74: (79.97 seconds) suminf.  302.80642 (4008) obj. 0 iterations 243
Cbc0038I Pass  75: (80.15 seconds) suminf.  302.37230 (4008) obj. 0 iterations 81
Cbc0038I Pass  76: (81.51 seconds) suminf.  298.95513 (4022) obj. 0 iterations 806
Cbc0038I Pass  77: (82.44 seconds) suminf.  297.34959 (3980) obj. 0 iterations 515
Cbc0038I Pass  78: (83.16 seconds) suminf.  296.05600 (3919) obj. 0 iterations 393
Cbc0038I Pass  79: (83.82 seconds) suminf.  293.51218 (3911) obj. 0 iterations 349
Cbc0038I Pass  80: (83.88 seconds) suminf.  293.13705 (3913) obj. 0 iterations 25
Cbc0038I Pass  81: (84.94 seconds) suminf.  291.89392 (3917) obj. 0 iterations 632
Cbc0038I Pass  82: (85.16 seconds) suminf.  290.70187 (3918) obj. 0 iterations 117
Cbc0038I Pass  83: (85.54 seconds) suminf.  291.08393 (3916) obj. 0 iterations 205
Cbc0038I Pass  84: (85.69 seconds) suminf.  289.79123 (3906) obj. 0 iterations 74
Cbc0038I Pass  85: (85.91 seconds) suminf.  290.07595 (3915) obj. 0 iterations 107
Cbc0038I Pass  86: (86.03 seconds) suminf.  289.54171 (3906) obj. 0 iterations 60
Cbc0038I Pass  87: (86.89 seconds) suminf.  290.57913 (3939) obj. 0 iterations 504
Cbc0038I Pass  88: (87.27 seconds) suminf.  288.05549 (3947) obj. 0 iterations 198
Cbc0038I Pass  89: (87.73 seconds) suminf.  290.41287 (3932) obj. 0 iterations 233
Cbc0038I Pass  90: (88.17 seconds) suminf.  288.53697 (3950) obj. 0 iterations 221
Cbc0038I Pass  91: (89.00 seconds) suminf.  290.82315 (3926) obj. 0 iterations 446
Cbc0038I Pass  92: (89.62 seconds) suminf.  291.11885 (3948) obj. 0 iterations 311
Cbc0038I Pass  93: (89.77 seconds) suminf.  291.34055 (3949) obj. 0 iterations 78
Cbc0038I Pass  94: (90.42 seconds) suminf.  290.33852 (3943) obj. 0 iterations 376
Cbc0038I Pass  95: (90.58 seconds) suminf.  290.23094 (3949) obj. 0 iterations 78
Cbc0038I Pass  96: (91.21 seconds) suminf.  288.81213 (3926) obj. 0 iterations 358
Cbc0038I Pass  97: (91.60 seconds) suminf.  288.47598 (3937) obj. 0 iterations 196
Cbc0038I Pass  98: (91.94 seconds) suminf.  288.72347 (3927) obj. 0 iterations 180
Cbc0038I Pass  99: (92.12 seconds) suminf.  288.43409 (3935) obj. 0 iterations 86
Cbc0038I Pass 100: (96.85 seconds) suminf.  318.52054 (3693) obj. 0 iterations 3386
Cbc0038I No solution found this major pass
Cbc0038I Before mini branch and bound, 1138 integers at bound fixed and 0 continuous
Cbc0038I Full problem 20067 rows 6534 columns, reduced to 16111 rows 5013 columns - too large
Cbc0038I Mini branch and bound did not improve solution (119.79 seconds)
Cbc0038I After 119.79 seconds - Feasibility pump exiting - took 110.63 seconds
Cbc0031I 192 added rows had average density of 4.28125
Cbc0013I At root node, 192 cuts changed objective from 0 to 0 in 8 passes
Cbc0014I Cut generator 0 (Probing) - 68 row cuts average 3.0 elements, 0 column cuts (0 active)  in 0.616 seconds - new frequency is 1
Cbc0014I Cut generator 1 (Gomory) - 359 row cuts average 7.7 elements, 0 column cuts (0 active)  in 10.815 seconds - new frequency is 1
Cbc0014I Cut generator 2 (Knapsack) - 54 row cuts average 2.0 elements, 0 column cuts (0 active)  in 0.038 seconds - new frequency is 1
Cbc0014I Cut generator 3 (Clique) - 0 row cuts average 0.0 elements, 0 column cuts (0 active)  in 0.401 seconds - new frequency is -100
Cbc0014I Cut generator 4 (MixedIntegerRounding2) - 0 row cuts average 0.0 elements, 0 column cuts (0 active)  in 0.063 seconds - new frequency is -100
Cbc0014I Cut generator 5 (FlowCover) - 0 row cuts average 0.0 elements, 0 column cuts (0 active)  in 0.043 seconds - new frequency is -100
Cbc0014I Cut generator 6 (TwoMirCuts) - 480 row cuts average 6.3 elements, 0 column cuts (0 active)  in 5.858 seconds - new frequency is -100
Cbc0010I After 0 nodes, 1 on tree, 1e+50 best solution, best possible 0 (185.92 seconds)
Cbc0010I After 100 nodes, 51 on tree, 1e+50 best solution, best possible 0 (743.01 seconds)
Cbc0010I After 200 nodes, 98 on tree, 1e+50 best solution, best possible 0 (903.94 seconds)
Cbc0004I Integer solution of 0 found after 294902 iterations and 288 nodes (917.85 seconds)
Cbc0001I Search completed - best objective 0, took 294902 iterations and 288 nodes (917.87 seconds)
Cbc0032I Strong branching done 5110 times (307978 iterations), fathomed 0 nodes and fixed 211 variables
Cbc0035I Maximum depth 165, 0 variables fixed on reduced cost
Cuts at root node changed objective from 0 to 0
Probing was tried 71 times and created 16253 cuts of which 0 were active after adding rounds of cuts (1.108 seconds)
Gomory was tried 71 times and created 651 cuts of which 0 were active after adding rounds of cuts (13.726 seconds)
Knapsack was tried 71 times and created 275 cuts of which 0 were active after adding rounds of cuts (0.351 seconds)
Clique was tried 8 times and created 0 cuts of which 0 were active after adding rounds of cuts (0.401 seconds)
MixedIntegerRounding2 was tried 8 times and created 0 cuts of which 0 were active after adding rounds of cuts (0.063 seconds)
FlowCover was tried 8 times and created 0 cuts of which 0 were active after adding rounds of cuts (0.043 seconds)
TwoMirCuts was tried 8 times and created 480 cuts of which 0 were active after adding rounds of cuts (5.858 seconds)
ZeroHalf was tried 1 times and created 0 cuts of which 0 were active after adding rounds of cuts (1.511 seconds)
ImplicationCuts was tried 14 times and created 56 cuts of which 0 were active after adding rounds of cuts (0.005 seconds)

Result - Optimal solution found

Objective value:                0.00000000
Enumerated nodes:               288
Total iterations:               294902
Time (CPU seconds):             926.22
Time (Wallclock seconds):       928.83

Total time (CPU seconds):       926.35   (Wallclock seconds):       928.98

